Version identifier: 20.1.0.0 | 2020-11-10 | 9bedb6d68
Tried aggregator 2 times.
MIP Presolve eliminated 1894 rows and 1037 columns.
MIP Presolve modified 4674 coefficients.
Aggregator did 186 substitutions.
Reduced MIP has 2729 rows, 2092 columns, and 8954 nonzeros.
Reduced MIP has 353 binaries, 1739 generals, 0 SOSs, and 0 indicators.
Presolve time = 0.03 sec. (10.62 ticks)
Probing fixed 60 vars, tightened 675 bounds.
Probing time = 0.00 sec. (2.01 ticks)
Tried aggregator 1 time.
Detecting symmetries...
MIP Presolve eliminated 1170 rows and 60 columns.
MIP Presolve modified 121 coefficients.
Reduced MIP has 1559 rows, 2032 columns, and 5084 nonzeros.
Reduced MIP has 477 binaries, 1555 generals, 0 SOSs, and 0 indicators.
Presolve time = 0.01 sec. (5.75 ticks)
Probing time = 0.00 sec. (0.36 ticks)
Clique table members: 5.
MIP emphasis: balance optimality and feasibility.
MIP search method: dynamic search.
Parallel mode: deterministic, using up to 24 threads.
Root relaxation solution time = 0.03 sec. (4.69 ticks)

        Nodes                                         Cuts/
   Node  Left     Objective  IInf  Best Integer    Best Bound    ItCnt     Gap

*     0+    0                           49.0000        0.0000           100.00%
      0     0        0.0000    67       49.0000        0.0000      488  100.00%
      0     0        0.0000    70       49.0000     Cuts: 143      597  100.00%
*     0+    0                           26.0000        0.0000           100.00%
      0     0        0.3750   133       26.0000     Cuts: 180      781   98.56%
*     0+    0                           22.0000        0.3750            98.30%
*     0+    0                            8.0000        0.3750            95.31%
      0     0        0.7500   119        8.0000      Cuts: 51      815   90.62%
      0     0        0.7500   130        8.0000      Cuts: 37      871   90.62%
      0     0        cutoff              8.0000        8.0000      871    0.00%
Elapsed time = 0.98 sec. (161.23 ticks, tree = 0.01 MB, solutions = 4)

Implied bound cuts applied:  47
Flow cuts applied:  7
Mixed integer rounding cuts applied:  9
Zero-half cuts applied:  133
Lift and project cuts applied:  16
Gomory fractional cuts applied:  39

Root node processing (before b&c):
  Real time             =    0.98 sec. (161.42 ticks)
Parallel b&c, 24 threads:
  Real time             =    0.00 sec. (0.00 ticks)
  Sync time (average)   =    0.00 sec.
  Wait time (average)   =    0.00 sec.
                          ------------
Total (root+branch&cut) =    0.98 sec. (161.42 ticks)

Solution status = Optimal
Solution LB = 8
Solution UB = 8
Runtime = 0.982312 seconds
	Command being timed: "/home/min/git_repos/CS598MEBProject/CNT-ILP/build/cnt -s 2 ./output/k8_n30/simC_c1_k8_n30_u2_s1_del04.input-right.cnp"
	User time (seconds): 14.82
	System time (seconds): 0.12
	Percent of CPU this job got: 1446%
	Elapsed (wall clock) time (h:mm:ss or m:ss): 0:01.03
	Average shared text size (kbytes): 0
	Average unshared data size (kbytes): 0
	Average stack size (kbytes): 0
	Average total size (kbytes): 0
	Maximum resident set size (kbytes): 127884
	Average resident set size (kbytes): 0
	Major (requiring I/O) page faults: 0
	Minor (reclaiming a frame) page faults: 29604
	Voluntary context switches: 7297
	Involuntary context switches: 2203
	Swaps: 0
	File system inputs: 0
	File system outputs: 16
	Socket messages sent: 0
	Socket messages received: 0
	Signals delivered: 0
	Page size (bytes): 4096
	Exit status: 0
